NAME = SAfile180,
TOURSIZE = 180,
LENGTH = 2040,
33,73,28,54,164,170,96,103,34,10,97,156,2,18,136,90,167,75,39,3,106,19,17,68,20,122,134,13,80,121,179,166,85,60,14,168,89,118,94,48,44,24,137,62,72,82,144,133,25,88,102,129,154,87,86,56,157,108,30,109,95,92,160,165,115,120,7,178,47,51,81,112,65,100,143,146,127,126,101,26,147,40,46,138,69,67,131,76,53,31,141,27,114,111,132,6,50,38,63,11,1,91,98,142,57,113,42,21,8,93,79,162,61,15,105,110,84,130,174,173,175,22,55,124,123,153,159,78,74,163,145,104,177,169,64,171,83,41,155,128,77,70,23,37,36,66,52,43,139,152,29,16,12,45,172,116,158,135,35,107,149,150,4,32,148,9,5,140,71,119,99,49,117,151,161,59,176,180,58,125